Route 1: 0 67 97 80 43 52 3 79 22 44 98 0
Route 2: 0 14 94 13 20 72 10 26 100 83 30 92 12 0
Route 3: 0 6 71 84 56 75 7 50 65 40 73 21 0
Route 4: 0 24 63 69 28 87 88 90 17 0
Route 5: 0 18 42 64 70 32 77 33 29 76 78 0
Route 6: 0 25 49 37 54 58 61 96 0
Route 7: 0 57 2 5 15 31 41 93 34 60 85 0
Route 8: 0 38 53 82 39 59 74 91 0
Route 9: 0 27 19 45 8 62 95 66 99 0
Route 10: 0 16 1 51 89 55 86 46 0
Route 11: 0 48 9 36 47 4 23 81 68 35 11 0
